c User generated cnf file
p cnf 13 17
-12 6 3 0 
2 -11 7 0 
-6 6 7 0 
5 -6 13 0 
-13 11 9 0 
-8 6 5 0 
4 9 -10 0 
9 13 -12 0 
2 -13 11 0 
-2 5 5 0 
8 4 -5 0 
2 -11 8 0 
6 11 -1 0 
4 10 -3 0 
-1 6 4 0 
-13 6 4 0 
3 -6 7 0 
